This is Ipopt version 3.14.16, running with linear solver MUMPS 5.7.3.

Number of nonzeros in equality constraint Jacobian...:        0
Number of nonzeros in inequality constraint Jacobian.:      289
Number of nonzeros in Lagrangian Hessian.............:        0

Total number of variables............................:       17
                     variables with only lower bounds:        0
                variables with lower and upper bounds:       17
                     variables with only upper bounds:        0
Total number of equality constraints.................:        0
Total number of inequality constraints...............:       17
        inequality constraints with only lower bounds:        0
   inequality constraints with lower and upper bounds:        0
        inequality constraints with only upper bounds:       17

iter    objective    inf_pr   inf_du lg(mu)  ||d||  lg(rg) alpha_du alpha_pr  ls
   0  3.1637676e+01 4.18e+01 2.71e+01   0.0 0.00e+00    -  0.00e+00 0.00e+00   0
   1  1.3939720e+01 7.01e-01 5.99e+01   0.3 6.30e+00    -  4.87e-02 5.38e-02f  1
   2  1.6873956e+01 2.77e-01 7.58e+01  -0.5 5.67e-01    -  9.98e-01 2.29e-01h  1
   3  1.5872990e+01 2.75e-01 9.03e+01  -6.5 5.28e-01    -  5.14e-01 1.43e-02f  1
   4  7.5266543e+00 3.12e+00 4.62e+01  -1.2 7.42e-01    -  1.00e+00 2.39e-01f  1
   5  5.4878861e+00 1.53e-01 1.12e+02  -1.1 3.24e-01    -  4.57e-01 2.64e-01f  1
   6  3.8826343e+00 1.44e-01 8.37e+01  -7.0 1.64e-01    -  2.64e-01 6.28e-02f  1
   7  4.1771450e+00 1.13e-01 4.99e+01  -1.7 2.38e-01    -  1.00e+00 2.12e-01h  1
   8  5.9508195e+00 1.70e+00 3.38e+02  -1.0 2.91e-01    -  9.89e-01 1.22e-01h  1
   9  6.1192140e+00 1.79e+00 8.51e+02  -0.9 1.32e+00    -  6.44e-02 5.09e-03h  1
iter    objective    inf_pr   inf_du lg(mu)  ||d||  lg(rg) alpha_du alpha_pr  ls
  10  7.9145262e+00 6.96e+00 1.14e+03   0.4 1.86e+00    -  4.68e-02 3.61e-02f  1
  11  6.4720072e+00 2.17e+00 2.84e+03  -0.7 7.14e-01    -  2.52e-02 1.67e-01h  1
  12  7.0216068e+00 3.01e+00 3.30e+03   0.7 9.61e-01    -  1.00e+00 2.33e-02f  1
  13  8.4600906e+00 2.83e+00 5.77e+03   0.6 8.78e-01    -  1.08e-01 2.31e-02h  1
  14  1.0357529e+01 2.79e+00 7.66e+03  -1.4 9.55e-01    -  1.14e-01 4.56e-02h  1
  15  2.6466468e+00 6.47e-02 9.83e+03   0.8 7.80e-01    -  2.97e-01 1.07e-01f  1
  16  2.4134162e+00 0.00e+00 2.44e+03  -0.3 1.65e-01    -  8.59e-01 1.00e+00f  1
  17  1.6202018e-01 0.00e+00 2.61e+01   0.3 8.30e-02    -  9.91e-01 1.00e+00f  1
  18  1.9354523e-01 0.00e+00 2.16e+00  -1.0 1.49e-02    -  1.00e+00 1.00e+00f  1
  19  1.8020024e-01 0.00e+00 1.42e+00  -1.7 2.25e-02    -  9.97e-01 1.00e+00f  1
iter    objective    inf_pr   inf_du lg(mu)  ||d||  lg(rg) alpha_du alpha_pr  ls
  20  1.1391041e-01 0.00e+00 8.82e-01  -2.5 1.39e-02    -  1.00e+00 1.00e+00h  1
  21  1.1203139e-01 0.00e+00 9.36e-01  -2.9 1.24e-02    -  1.00e+00 1.00e+00h  1
  22  1.0186903e-01 0.00e+00 1.08e+00  -2.6 5.18e-02    -  1.00e+00 1.62e-01h  3
  23  8.7665694e-02 0.00e+00 4.04e-01  -2.9 9.45e-03    -  1.00e+00 1.00e+00h  1
  24  7.8421316e-02 0.00e+00 3.13e-01  -3.6 5.86e-03    -  1.00e+00 1.00e+00h  1
  25  8.1023834e-02 0.00e+00 5.26e-01  -3.7 2.74e-02    -  1.00e+00 1.00e+00H  1
  26  5.6380580e-02 0.00e+00 2.98e-01  -3.4 4.31e-02    -  1.00e+00 1.00e+00f  1
  27  4.4769283e-02 0.00e+00 1.09e-01  -3.2 5.26e-02    -  1.00e+00 2.13e-01h  2
  28  3.7200314e-02 0.00e+00 6.25e-02  -3.5 1.40e-02    -  1.00e+00 1.00e+00h  1
  29  3.7126685e-02 0.00e+00 1.02e-01  -4.0 1.50e-02    -  1.00e+00 1.00e+00h  1
iter    objective    inf_pr   inf_du lg(mu)  ||d||  lg(rg) alpha_du alpha_pr  ls
  30  3.7785933e-02 0.00e+00 5.15e-02  -4.7 3.09e-02    -  1.00e+00 9.73e-01H  1
  31  3.6377367e-02 0.00e+00 4.06e-02  -4.2 4.43e-02    -  1.00e+00 4.38e-01h  2
  32  3.5163962e-02 0.00e+00 5.65e-02  -3.9 6.34e-02    -  1.00e+00 4.59e-01h  1
  33  3.5208233e-02 0.00e+00 2.12e-02  -3.9 1.46e-02    -  1.00e+00 1.00e+00h  1
  34  3.4401867e-02 0.00e+00 4.89e-02  -4.0 8.96e-03    -  1.00e+00 1.00e+00h  1
  35  3.4701656e-02 0.00e+00 5.19e-03  -4.4 1.35e-02    -  9.99e-01 1.00e+00H  1
  36  3.3414329e-02 0.00e+00 2.01e-02  -5.1 1.01e-02    -  1.00e+00 1.00e+00h  1
  37  3.3310642e-02 0.00e+00 2.26e-02  -4.6 6.58e-02    -  1.00e+00 5.69e-02h  3
  38  3.2764345e-02 0.00e+00 1.57e-02  -4.3 5.02e-03    -  9.97e-01 1.00e+00h  1
  39  1.8683941e-01 0.00e+00 3.00e+00  -4.1 2.92e-02    -  1.00e+00 1.00e+00H  1
iter    objective    inf_pr   inf_du lg(mu)  ||d||  lg(rg) alpha_du alpha_pr  ls
  40  3.3128956e-02 0.00e+00 4.99e-02  -4.2 2.78e-02    -  1.25e-01 1.00e+00f  1
  41  3.2840078e-02 0.00e+00 1.59e-02  -4.2 6.03e-03    -  1.00e+00 1.00e+00h  1
  42  3.2511423e-02 0.00e+00 1.34e-02  -4.2 5.14e-03    -  1.00e+00 1.00e+00H  1
  43  3.1869197e-02 0.00e+00 3.90e-02  -4.9 8.93e-03    -  1.00e+00 1.00e+00h  1
  44  3.0801611e-02 0.00e+00 4.70e-02  -4.9 4.35e-02    -  1.00e+00 7.05e-01h  1
  45  3.1130491e-02 0.00e+00 6.78e-02  -4.4 2.23e-01    -  1.00e+00 7.20e-02h  3
  46  3.2989613e-02 0.00e+00 2.89e-02  -4.5 3.31e-02    -  6.92e-01 1.00e+00H  1
  47  3.2750690e-02 0.00e+00 2.25e-02  -4.5 2.90e-02    -  4.44e-01 1.00e+00h  1
  48  3.1818235e-02 0.00e+00 3.93e-02  -4.5 1.42e-01    -  8.34e-01 1.73e-01h  3
  49  3.1180412e-02 0.00e+00 3.96e-02  -4.5 4.57e-02    -  3.45e-01 6.27e-02h  4
iter    objective    inf_pr   inf_du lg(mu)  ||d||  lg(rg) alpha_du alpha_pr  ls
  50  3.1111665e-02 0.00e+00 4.02e-02  -4.5 7.22e-02    -  1.00e+00 6.10e-03h  7
  51  3.1001042e-02 0.00e+00 3.53e-02  -4.5 1.22e-02    -  1.00e+00 1.00e+00h  1
  52  3.0836310e-02 0.00e+00 2.63e-02  -4.1 7.34e-02    -  1.00e+00 7.48e-02h  4
  53  3.1562287e-02 0.00e+00 7.39e-02  -4.4 1.81e-02    -  1.00e+00 1.00e+00H  1
  54  3.0518449e-02 0.00e+00 9.04e-02  -4.7 1.46e-02    -  1.00e+00 7.92e-01h  1
  55  3.0939599e-02 0.00e+00 6.33e-02  -5.2 2.61e-02    -  1.00e+00 1.00e+00H  1
  56  3.0429879e-02 0.00e+00 3.59e-02  -5.2 2.27e-02    -  1.00e+00 2.77e-01h  2
  57  2.9284604e-02 0.00e+00 9.02e-02  -5.4 9.83e-03    -  1.00e+00 1.00e+00h  1
  58  2.9230941e-02 0.00e+00 4.48e-02  -4.1 1.42e-01    -  1.00e+00 5.58e-02h  2
  59  7.6783647e-02 0.00e+00 8.76e-01  -4.2 4.89e-02    -  9.83e-01 9.10e-01H  1
iter    objective    inf_pr   inf_du lg(mu)  ||d||  lg(rg) alpha_du alpha_pr  ls
  60  3.0437402e-02 0.00e+00 6.54e-02  -4.1 4.12e-02    -  9.14e-01 1.00e+00f  1
  61  3.0126052e-02 0.00e+00 4.57e-02  -4.1 9.85e-03    -  1.00e+00 1.00e+00h  1
  62  3.0410380e-02 0.00e+00 5.87e-02  -4.1 6.89e-03    -  1.00e+00 1.00e+00H  1
  63  2.9825023e-02 0.00e+00 3.16e-02  -4.2 1.89e-02    -  1.00e+00 2.61e-01h  2
  64  3.0993597e-02 0.00e+00 7.54e-02  -4.3 1.09e-02    -  1.00e+00 1.00e+00H  1
  65  2.9844058e-02 0.00e+00 4.74e-02  -4.3 8.88e-03    -  9.56e-01 1.00e+00H  1
  66  3.1101645e-02 0.00e+00 3.95e-02  -4.7 1.63e-02    -  1.00e+00 1.00e+00H  1
  67  2.8818822e-02 0.00e+00 4.18e-02  -4.9 1.61e-02    -  1.00e+00 1.00e+00f  1
  68  2.7361031e-02 0.00e+00 4.27e-02  -5.1 1.55e-02    -  1.00e+00 1.00e+00h  1
  69  3.1811118e-02 0.00e+00 9.33e-02  -4.5 2.09e-02    -  1.00e+00 1.00e+00H  1
iter    objective    inf_pr   inf_du lg(mu)  ||d||  lg(rg) alpha_du alpha_pr  ls
  70  2.7739762e-02 0.00e+00 5.40e-02  -4.6 1.38e-02    -  1.00e+00 9.70e-01h  1
  71  2.8481430e-02 0.00e+00 1.79e-01  -4.6 5.71e-02    -  5.82e-01 9.78e-02f  3
  72  2.8087006e-02 0.00e+00 1.05e-01  -4.6 4.02e-03    -  6.89e-01 1.00e+00h  1
  73  2.8778692e-02 0.00e+00 1.38e-01  -4.6 4.92e-03    -  1.00e+00 1.00e+00h  1
  74  2.8996107e-02 0.00e+00 1.41e-01  -4.6 1.55e-02    -  7.53e-01 7.99e-01H  1
  75  2.8362769e-02 0.00e+00 6.73e-02  -4.6 8.92e-03    -  1.00e+00 1.00e+00F  1
  76  2.8003925e-02 0.00e+00 1.19e-01  -4.9 5.69e-03    -  1.00e+00 1.00e+00h  1
  77  2.7821027e-02 0.00e+00 1.16e-01  -5.0 7.76e-03    -  1.00e+00 8.46e-01H  1
  78  2.7590814e-02 0.00e+00 4.63e-02  -5.2 7.12e-03    -  1.00e+00 1.00e+00f  1
  79  2.8161759e-02 0.00e+00 5.69e-02  -5.3 1.08e-02    -  5.95e-01 5.36e-01H  1
iter    objective    inf_pr   inf_du lg(mu)  ||d||  lg(rg) alpha_du alpha_pr  ls
  80  2.7655103e-02 0.00e+00 6.68e-02  -5.3 2.97e-02    -  4.46e-01 1.86e-01f  1
  81  2.7351562e-02 0.00e+00 8.41e-02  -5.3 6.35e-03    -  8.00e-01 9.18e-01f  1
  82  2.7087034e-02 0.00e+00 8.72e-02  -5.2 6.17e-03    -  1.00e+00 7.79e-01f  1
  83  3.9608643e-02 0.00e+00 4.38e-01  -4.8 2.14e-02    -  1.00e+00 1.00e+00H  1
  84  2.7900034e-02 0.00e+00 1.62e-01  -4.9 1.43e-02    -  8.83e-01 1.00e+00h  1
  85  2.7238151e-02 0.00e+00 7.47e-02  -4.9 1.28e-01    -  2.15e-01 2.81e-02h  2
  86  2.7085755e-02 0.00e+00 5.34e-02  -4.9 2.30e-02    -  1.00e+00 1.19e-01h  3
  87  2.7127005e-02 0.00e+00 8.71e-02  -4.9 3.81e-03    -  1.00e+00 1.00e+00h  1
  88  2.6921306e-02 0.00e+00 8.53e-02  -4.9 3.78e-03    -  1.00e+00 5.00e-01h  2
  89  2.6790626e-02 0.00e+00 4.47e-02  -5.2 2.02e-03    -  1.00e+00 1.00e+00h  1
iter    objective    inf_pr   inf_du lg(mu)  ||d||  lg(rg) alpha_du alpha_pr  ls
  90  2.6776866e-02 0.00e+00 8.84e-02  -6.0 9.58e-04    -  1.00e+00 1.00e+00h  1
  91  2.6802762e-02 0.00e+00 1.01e-01  -5.7 7.26e-04    -  1.00e+00 1.00e+00h  1
  92  2.6643758e-02 0.00e+00 3.85e-02  -6.6 1.77e-03    -  1.00e+00 1.00e+00h  1
  93  3.0081155e-02 0.00e+00 1.47e-02  -4.7 1.57e-02    -  1.00e+00 1.00e+00H  1
  94  2.9127956e-02 0.00e+00 5.55e-02  -5.3 9.46e-03    -  1.00e+00 9.24e-01f  1
  95  2.8732356e-02 0.00e+00 5.19e-02  -5.3 2.78e-02    -  8.20e-01 2.07e-01h  2
  96  2.7810620e-02 0.00e+00 1.82e-01  -5.3 1.58e-02    -  8.86e-01 5.73e-01h  1
  97  2.7890236e-02 0.00e+00 6.20e-02  -5.3 6.84e-02    -  1.56e-01 7.35e-02h  2
  98  3.0477862e-02 0.00e+00 8.57e-02  -5.3 1.33e-02    -  1.68e-01 1.00e+00H  1
  99  2.7661978e-02 0.00e+00 9.99e-02  -5.3 6.81e-03    -  3.01e-01 1.00e+00h  1
iter    objective    inf_pr   inf_du lg(mu)  ||d||  lg(rg) alpha_du alpha_pr  ls
 100  2.7470978e-02 0.00e+00 8.31e-02  -5.3 1.39e-02    -  5.22e-01 6.47e-01h  1

Number of Iterations....: 100

                                   (scaled)                 (unscaled)
Objective...............:   4.8546553164633211e-03    2.7470978471851721e-02
Dual infeasibility......:   8.3131450691847450e-02    4.7041491999338286e-01
Constraint violation....:   0.0000000000000000e+00    0.0000000000000000e+00
Variable bound violation:   0.0000000000000000e+00    0.0000000000000000e+00
Complementarity.........:   5.9182507133321707e-06    3.3489532693623008e-05
Overall NLP error.......:   8.3131450691847450e-02    4.7041491999338286e-01


Number of objective function evaluations             = 191
Number of objective gradient evaluations             = 101
Number of equality constraint evaluations            = 0
Number of inequality constraint evaluations          = 191
Number of equality constraint Jacobian evaluations   = 0
Number of inequality constraint Jacobian evaluations = 101
Number of Lagrangian Hessian evaluations             = 0
Total seconds in IPOPT                               = 64.021

EXIT: Maximum Number of Iterations Exceeded.
